10 1 4
651 525 190 585 697 140 853 571 908 740 
221 415 565 99 785 724 978 589 906 388 
727 779 156 115 299 763 692 558 306 1000 
184 956 524 373 541 220 512 394 791 420 
1340 120 8340 6980 1100 6180 4220 870 2070 3270 
17240
